g9 0 1 0 17 20170614 0 4 0 240	# problem ex14_1_7
 10 17 1 0 1	# vars, constraints, objectives, ranges, eqns
 17 0	# nonlinear constraints, objectives
 0 0	# network constraints: nonlinear, linear
 9 0 0	# nonlinear vars in constraints, objectives, both
 0 0 0 1	# linear network variables; functions; arith, flags
 0 0 0 0 0	# discrete variables: binary, integer, nonlinear (b,c,o)
 116 1	# nonzeros in Jacobian, gradients
 0 0	# max name lengths: constraints, variables
 0 0 0 0 0	# common exprs: b,c,o,c1,o1
b
0 0 10
0 0 10
0 0 10
0 0 10
0 0 10
0 0 10
0 0 10
0 0 10
0 0 10
3
r
1 28.5132
1 111.8467
1 134.3884
1 211.4823
1 -28.5132
1 -111.8467
1 -134.3884
1 -211.4823
1 -23.3037
1 -101.779
1 -111.461
1 -191.267
1 23.3037
1 101.779
1 111.461
1 191.267
4 0
C0
o2
o2
o1
n1
o2
v0
v1
v2
o0
n-1
o44
o2
v4
o54
3
n0.485
o2
n-0.0052095
v6
o2
n-0.0285132
v7
C1
o2
o2
o1
n1
o2
v0
v1
v2
o0
n-1
o44
o2
v4
o54
3
n0.752
o2
n-0.0100677
v6
o2
n-0.1118467
v7
C2
o2
o2
o1
n1
o2
v0
v1
v2
o0
n-1
o44
o2
v4
o54
3
n0.869
o2
n-0.0229274
v6
o2
n-0.1343884
v7
C3
o2
o2
o1
n1
o2
v0
v1
v2
o0
n-1
o44
o2
v4
o54
3
n0.982
o2
n-0.0202153
v6
o2
n-0.2114823
v7
C4
o16
o2
o2
o1
n1
o2
v0
v1
v2
o0
n-1
o44
o2
v4
o54
3
n0.485
o2
n-0.0052095
v6
o2
n-0.0285132
v7
C5
o16
o2
o2
o1
n1
o2
v0
v1
v2
o0
n-1
o44
o2
v4
o54
3
n0.752
o2
n-0.0100677
v6
o2
n-0.1118467
v7
C6
o16
o2
o2
o1
n1
o2
v0
v1
v2
o0
n-1
o44
o2
v4
o54
3
n0.869
o2
n-0.0229274
v6
o2
n-0.1343884
v7
C7
o16
o2
o2
o1
n1
o2
v0
v1
v2
o0
n-1
o44
o2
v4
o54
3
n0.982
o2
n-0.0202153
v6
o2
n-0.2114823
v7
C8
o2
o2
o1
n1
o2
v0
v1
v3
o0
n-1
o44
o2
v5
o54
3
n0.116
o2
n0.0233037
v8
o2
n-0.0052095
v6
C9
o2
o2
o1
n1
o2
v0
v1
v3
o0
n-1
o44
o2
v5
o0
n-0.502
o0
o2
n0.101779
v8
o2
n-0.0100677
v6
C10
o2
o2
o1
n1
o2
v0
v1
v3
o0
n-1
o44
o2
v5
o54
3
n0.166
o2
n0.111461
v8
o2
n-0.0229274
v6
C11
o2
o2
o1
n1
o2
v0
v1
v3
o0
n-1
o44
o2
v5
o0
n-0.473
o0
o2
n0.191267
v8
o2
n-0.0202153
v6
C12
o16
o2
o2
o1
n1
o2
v0
v1
v3
o0
n-1
o44
o2
v5
o54
3
n0.116
o2
n0.0233037
v8
o2
n-0.0052095
v6
C13
o16
o2
o2
o1
n1
o2
v0
v1
v3
o0
n-1
o44
o2
v5
o0
n-0.502
o0
o2
n0.101779
v8
o2
n-0.0100677
v6
C14
o16
o2
o2
o1
n1
o2
v0
v1
v3
o0
n-1
o44
o2
v5
o54
3
n0.166
o2
n0.111461
v8
o2
n-0.0229274
v6
C15
o16
o2
o2
o1
n1
o2
v0
v1
v3
o0
n-1
o44
o2
v5
o0
n-0.473
o0
o2
n0.191267
v8
o2
n-0.0202153
v6
C16
o1
o2
v0
v2
o2
v1
v3
O0 0
n0
k9
17
34
43
52
60
68
84
92
100
J0 7
0 0
1 23.3037
2 0
4 0
6 0
7 0
9 -1
J1 7
0 0
1 101.779
2 0
4 0
6 0
7 0
9 -1
J2 7
0 0
1 111.461
2 0
4 0
6 0
7 0
9 -1
J3 7
0 0
1 191.267
2 0
4 0
6 0
7 0
9 -1
J4 7
0 0
1 -23.3037
2 0
4 0
6 0
7 0
9 -1
J5 7
0 0
1 -101.779
2 0
4 0
6 0
7 0
9 -1
J6 7
0 0
1 -111.461
2 0
4 0
6 0
7 0
9 -1
J7 7
0 0
1 -191.267
2 0
4 0
6 0
7 0
9 -1
J8 7
0 -28.5132
1 0
3 0
5 0
6 0
8 0
9 -1
J9 7
0 -111.8467
1 0
3 0
5 0
6 0
8 0
9 -1
J10 7
0 -134.3884
1 0
3 0
5 0
6 0
8 0
9 -1
J11 7
0 -211.4823
1 0
3 0
5 0
6 0
8 0
9 -1
J12 7
0 28.5132
1 0
3 0
5 0
6 0
8 0
9 -1
J13 7
0 111.8467
1 0
3 0
5 0
6 0
8 0
9 -1
J14 7
0 134.3884
1 0
3 0
5 0
6 0
8 0
9 -1
J15 7
0 211.4823
1 0
3 0
5 0
6 0
8 0
9 -1
J16 4
0 0
1 0
2 0
3 0
G0 1
9 1
